Version identifier: 12.10.0.0 | 2019-11-26 | 843d4de
CPXPARAM_WorkMem                                 28672
Tried aggregator 2 times.
Aggregator did 30 substitutions.
Reduced MIP has 139 rows, 180 columns, and 652 nonzeros.
Reduced MIP has 180 binaries, 0 generals, 0 SOSs, and 0 indicators.
Presolve time = 0,00 sec. (0,60 ticks)
Found incumbent of value 120,000000 after 0,00 sec. (1,17 ticks)
Probing time = 0,00 sec. (0,20 ticks)
Tried aggregator 1 time.
Detecting symmetries...
MIP Presolve eliminated 32 rows and 0 columns.
MIP Presolve added 64 rows and 0 columns.
Reduced MIP has 171 rows, 180 columns, and 684 nonzeros.
Reduced MIP has 180 binaries, 0 generals, 0 SOSs, and 0 indicators.
Presolve time = 0,00 sec. (0,71 ticks)
Probing time = 0,00 sec. (0,20 ticks)
Clique table members: 427.
MIP emphasis: balance optimality and feasibility.
MIP search method: dynamic search.
Parallel mode: deterministic, using up to 16 threads.
Root relaxation solution time = 0,00 sec. (0,74 ticks)

        Nodes                                         Cuts/
   Node  Left     Objective  IInf  Best Integer    Best Bound    ItCnt     Gap

*     0+    0                          120,0000        0,0000           100,00%
*     0+    0                           76,0000        0,0000           100,00%
*     0+    0                           73,0000        0,0000           100,00%
      0     0       30,0000   132       73,0000       30,0000       97   58,90%
      0     0       30,0879   132       73,0000     Cuts: 139      189   58,78%
*     0+    0                           72,0000       30,0879            58,21%
      0     0       31,4501   132       72,0000     Cuts: 142      252   56,32%
      0     0       31,9920   132       72,0000     Cuts: 142      315   55,57%
      0     0       32,1127   132       72,0000     Cuts: 111      347   55,40%
*     0+    0                           69,0000       32,1127            53,46%
      0     0       32,2065   132       69,0000      Cuts: 69      381   53,32%
Detecting symmetries...
      0     0       32,2541   132       69,0000      Cuts: 68      397   53,25%
      0     0       32,2709   132       69,0000   ZeroHalf: 2      417   53,23%
      0     0       32,2950   132       69,0000      Cuts: 69      441   53,20%
*     0+    0                           66,0000       32,2950            51,07%
*     0+    0                           63,0000       32,2950            48,74%
Detecting symmetries...
      0     2       32,2950   179       63,0000       35,9367      441   42,96%
Elapsed time = 0,16 sec. (68,99 ticks, tree = 0,02 MB, solutions = 7)
   3451  1832       57,5731    68       63,0000       48,9721    79066   22,27%

Performing restart 1

Repeating presolve.
Tried aggregator 1 time.
Reduced MIP has 171 rows, 180 columns, and 684 nonzeros.
Reduced MIP has 180 binaries, 0 generals, 0 SOSs, and 0 indicators.
Presolve time = 0,00 sec. (0,38 ticks)
Tried aggregator 1 time.
Reduced MIP has 171 rows, 180 columns, and 684 nonzeros.
Reduced MIP has 180 binaries, 0 generals, 0 SOSs, and 0 indicators.
Presolve time = 0,00 sec. (0,50 ticks)
Represolve time = 0,01 sec. (5,67 ticks)
   6661     0       33,8421   179       63,0000      Cuts: 18   174612   14,34%
   6661     0       34,6387   179       63,0000       Cuts: 9   174670   14,34%
   6661     0       35,1095   179       63,0000       Cuts: 9   174747   14,34%
   6661     0       35,6501   179       63,0000       Cuts: 8   174819   14,34%
   6661     2       35,6501   178       63,0000       53,9670   174819   14,34%
   8209   936       58,4504   111       63,0000       53,9670   207002   14,34%
  11442  2989       52,9748   133       63,0000       53,9670   286710   14,34%
  14966  4867        cutoff             63,0000       53,9670   371553   14,34%

Performing restart 2

Repeating presolve.
Tried aggregator 1 time.
Reduced MIP has 171 rows, 180 columns, and 684 nonzeros.
Reduced MIP has 180 binaries, 0 generals, 0 SOSs, and 0 indicators.
Presolve time = 0,00 sec. (0,38 ticks)
Tried aggregator 1 time.
Reduced MIP has 171 rows, 180 columns, and 684 nonzeros.
Reduced MIP has 180 binaries, 0 generals, 0 SOSs, and 0 indicators.
Presolve time = 0,00 sec. (0,50 ticks)
Represolve time = 0,02 sec. (11,64 ticks)
  15421     0       36,4956   179       63,0000       Cuts: 8   400207   14,34%
  15421     0       36,6950   179       63,0000      Cuts: 11   400267   14,34%
  15421     0       37,1348   179       63,0000      Cuts: 11   400389   14,34%
  15421     0       37,2744   179       63,0000      Cuts: 24   400462   14,34%
  15421     0       37,5311   179       63,0000       Cuts: 7   400523   14,34%
  15421     0       37,5794   179       63,0000      Cuts: 29   400587   14,34%
* 15421+    0                           62,0000       53,9670            12,96%
  15421     2       37,5794   179       62,0000       53,9670   400587   12,96%
  18847   301       57,0458   125       62,0000       53,9670   495386   12,96%

Clique cuts applied:  67
Cover cuts applied:  246
Flow cuts applied:  3
Mixed integer rounding cuts applied:  58
Zero-half cuts applied:  3
Lift and project cuts applied:  10
Gomory fractional cuts applied:  49

Root node processing (before b&c):
  Real time             =    0,15 sec. (68,76 ticks)
Parallel b&c, 16 threads:
  Real time             =    2,65 sec. (1927,04 ticks)
  Sync time (average)   =    0,70 sec.
  Wait time (average)   =    0,01 sec.
                          ------------
Total (root+branch&cut) =    2,81 sec. (1995,79 ticks)
